(set-logic QF_BV)
(declare-fun _substvar_184_ () (_ BitVec 1))
(declare-fun _substvar_152_ () (_ BitVec 1))
(declare-fun _substvar_183_ () (_ BitVec 1))
(declare-fun _substvar_169_ () (_ BitVec 1))
(declare-fun _substvar_170_ () (_ BitVec 1))
(declare-fun _substvar_181_ () (_ BitVec 1))
(declare-fun _substvar_216_ () (_ BitVec 1))
(declare-fun _substvar_212_ () (_ BitVec 1))
(declare-fun _substvar_209_ () (_ BitVec 1))
(declare-fun _substvar_193_ () (_ BitVec 1))
(declare-fun _substvar_206_ () (_ BitVec 64))
(declare-fun _substvar_182_ () (_ BitVec 1))
(declare-fun _substvar_155_ () (_ BitVec 1))
(declare-fun _substvar_179_ () (_ BitVec 64))
(declare-fun _substvar_168_ () (_ BitVec 64))
(declare-fun _substvar_199_ () (_ BitVec 1))
(declare-fun _substvar_174_ () (_ BitVec 1))
(declare-fun _substvar_153_ () (_ BitVec 1))
(declare-fun _substvar_154_ () (_ BitVec 1))
(declare-fun _substvar_167_ () (_ BitVec 1))
(declare-fun _substvar_156_ () (_ BitVec 1))
(declare-fun _substvar_194_ () (_ BitVec 1))
(declare-fun _substvar_200_ () (_ BitVec 1))
(assert (= _substvar_206_ (bvsrem _substvar_168_ (_ bv0 64))))
(assert (= _substvar_179_ (bvsub _substvar_168_ _substvar_206_)))
(assert (= (= _substvar_152_ (_ bv1 1)) (bvslt _substvar_179_ (_ bv0 64))))
(assert (= _substvar_154_ _substvar_152_))
(assert (= _substvar_156_ (bvand _substvar_183_ _substvar_154_)))
(assert (= _substvar_155_ (bvand _substvar_153_ _substvar_156_)))
(assert (= _substvar_200_ (bvand _substvar_155_ _substvar_216_)))
(assert (= _substvar_193_ (bvand _substvar_200_ _substvar_209_)))
(assert (= _substvar_194_ (bvand _substvar_193_ _substvar_167_)))
(assert (= _substvar_212_ (bvand _substvar_194_ _substvar_199_)))
(assert (= _substvar_174_ (bvand _substvar_212_ _substvar_170_)))
(assert (= _substvar_182_ _substvar_174_))
(assert (= _substvar_184_ (bvand _substvar_169_ _substvar_182_)))
(assert (= (= _substvar_181_ (_ bv1 1)) (=> (= _substvar_184_ (_ bv1 1)) false)))
(assert (= (_ bv0 1) _substvar_181_))
(check-sat)
(exit)
